problem_generation/data/GISP/train/er_n=66_m=1323_p=0.60_SET2_setparam=100.00_alpha=0.50_713.lp
maximize
OBJ:100x0 + 100x1 + 100x2 + 100x3 + 100x4 + 100x5 + 100x6 + 100x7 + 100x8 + 100x9 + 100x10 + 100x11 + 100x12 + 100x13 + 100x14 + 100x15 + 100x16 + 100x17 + 100x18 + 100x19 + 100x20 + 100x21 + 100x22 + 100x23 + 100x24 + 100x25 + 100x26 + 100x27 + 100x28 + 100x29 + 100x30 + 100x31 + 100x32 + 100x33 + 100x34 + 100x35 + 100x36 + 100x37 + 100x38 + 100x39 + 100x40 + 100x41 + 100x42 + 100x43 + 100x44 + 100x45 + 100x46 + 100x47 + 100x48 + 100x49 + 100x50 + 100x51 + 100x52 + 100x53 + 100x54 + 100x55 + 100x56 + 100x57 + 100x58 + 100x59 + 100x60 + 100x61 + 100x62 + 100x63 + 100x64 + 100x65 - y47_53 - y18_26 - y15_39 - y7_35 - y0_5 - y29_41 - y40_50 - y21_46 - y6_57 - y11_23 - y21_64 - y41_42 - y33_47 - y3_6 - y10_54 - y2_50 - y3_33 - y24_65 - y47_48 - y55_61 - y17_53 - y28_53 - y7_30 - y17_62 - y9_58 - y6_52 - y40_63 - y21_59 - y2_27 - y25_29 - y2_36 - y2_45 - y3_10 - y14_19 - y32_55 - y13_51 - y43_64 - y24_60 - y16_56 - y16_65 - y17_39 - y7_16 - y17_48 - y29_31 - y9_62 - y48_53 - y40_49 - y21_45 - y10_17 - y6_65 - y39_62 - y62_64 - y54_60 - y2_31 - y12_63 - y51_54 - y3_14 - y14_23 - y43_59 - y1_53 - y16_51 - y13_64 - y16_60 - y9_30 - y47_56 - y17_52 - y28_52 - y6_24 - y9_57 - y50_58 - y6_33 - y29_35 - y21_31 - y42_63 - y21_40 - y21_49 - y10_21 - y31_53 - y54_55 - y10_30 - y54_64 - y12_58 - y23_58 - y2_35 - y43_45 - y3_18 - y24_50 - y35_50 - y16_46 - y13_59 - y16_55 - y9_25 - y5_36 - y28_38 - y47_51 - y28_47 - y17_56 - y50_62 - y42_58 - y19_65 - y10_16 - y2_12 - y20_48 - y10_25 - y12_44 - y31_48 - y2_21 - y39_61 - y12_53 - y23_53 - y4_49 - y12_62 - y4_58 - y35_45 - y16_50 - y1_61 - y35_63 - y17_24 - y36_37 - y17_33 - y28_33 - y5_40 - y58_61 - y8_51 - y30_60 - y42_62 - y11_65 - y12_39 - y23_39 - y20_61 - y54_63 - y23_57 - y1_38 - y24_40 - y43_53 - y24_49 - y5_17 - y9_15 - y38_51 - y5_26 - y17_28 - y38_60 - y28_37 - y9_33 - y7_63 - y6_9 - y27_50 - y50_52 - y30_46 - y0_60 - y11_60 - y23_25 - y39_51 - y20_47 - y12_43 - y31_65 - y13_26 - y53_62 - y13_35 - y13_44 - y24_44 - y46_50 - y9_10 - y5_21 - y46_59 - y26_53 - y38_55 - y49_55 - y9_28 - y26_62 - y38_64 - y7_58 - y18_58 - y49_64 - y27_36 - y27_45 - y8_41 - y42_43 - y11_37 - y8_50 - y30_59 - y11_55 - y20_42 - y4_25 - y12_38 - y23_38 - y20_51 - y23_47 - y12_56 - y1_19 - y34_53 - y13_30 - y24_30 - y16_26 - y45_62 - y5_16 - y9_14 - y26_48 - y46_63 - y38_59 - y49_59 - y18_53 - y19_27 - y8_36 - y19_36 - y11_32 - y30_45 - y11_41 - y42_56 - y11_50 - y8_63 - y20_28 - y4_11 - y11_59 - y39_41 - y4_20 - y12_42 - y1_5 - y1_23 - y37_44 - y16_21 - y45_57 - y56_57 - y22_64 - y26_34 - y5_11 - y57_58 - y26_52 - y38_63 - y27_35 - y27_44 - y0_36 - y30_58 - y31_32 - y4_15 - y33_51 - y44_60 - y2_63 - y22_50 - y3_46 - y37_48 - y56_61 - y15_20 - y14_64 - y15_29 - y7_34 - y18_34 - y15_47 - y38_49 - y18_52 - y8_17 - y26_65 - y48_62 - y0_22 - y19_35 - y30_35 - y0_40 - y12_14 - y44_46 - y12_23 - y41_59 - y44_55 - y25_51 - y44_64 - y1_4 - y1_13 - y34_47 - y45_56 - y14_50 - y56_65 - y15_42 - y26_42 - y7_38 - y8_12 - y0_17 - y29_53 - y6_60 - y29_62 - y63_64 - y21_58 - y41_45 - y33_41 - y25_37 - y33_50 - y10_57 - y22_31 - y34_42 - y34_51 - y14_45 - y22_58 - y3_54 - y3_63 - y26_28 - y26_37 - y18_33 - y26_46 - y17_65 - y0_12 - y6_55 - y29_57 - y40_57 - y33_36 - y25_50 - y3_13 - y33_63 - y22_26 - y51_62 - y3_22 - y14_22 - y22_35 - y34_37 - y7_10 - y55_59 - y28_51 - y7_28 - y36_64 - y17_60 - y9_56 - y6_41 - y29_43 - y48_56 - y0_16 - y6_50 - y11_16 - y29_52 - y29_61 - y25_27 - y10_38 - y33_40 - y2_34 - y25_36 - y33_49 - y2_43 - y51_57 - y2_52 - y14_17 - y25_54 - y14_26 - y3_35 - y17_46 - y28_46 - y7_23 - y18_23 - y36_59 - y47_59 - y9_51 - y5_62 - y21_25 - y0_2 - y6_36 - y48_51 - y10_24 - y10_42 - y25_40 - y2_47 - y22_25 - y2_56 - y14_21 - y43_57 - y13_62 - y28_32 - y36_45 - y6_22 - y21_29 - y29_42 - y40_42 - y2_15 - y31_60 - y10_37 - y25_35 - y32_34 - y12_65 - y32_43 - y51_56 - y13_39 - y32_61 - y13_57 - y16_53 - y36_40 - y5_34 - y5_43 - y28_45 - y5_52 - y6_17 - y6_26 - y58_64 - y21_24 - y50_60 - y29_37 - y21_33 - y42_65 - y21_42 - y10_14 - y39_59 - y2_19 - y10_32 - y31_64 - y23_60 - y13_25 - y4_65 - y32_47 - y1_41 - y16_39 - y16_48 - y1_59 - y16_57 - y5_29 - y5_38 - y9_36 - y28_49 - y6_12 - y58_59 - y50_55 - y42_51 - y50_64 - y61_64 - y6_39 - y8_58 - y0_63 - y10_18 - y20_59 - y23_55 - y32_33 - y1_27 - y24_29 - y4_60 - y35_38 - y32_51 - y5_15 - y1_63 - y46_53 - y16_61 - y9_22 - y38_58 - y28_35 - y49_58 - y5_42 - y6_16 - y19_53 - y30_53 - y42_55 - y0_49 - y8_62 - y19_62 - y30_62 - y39_40 - y2_9 - y20_45 - y12_41 - y31_54 - y1_22 - y13_33 - y32_46 - y16_29 - y1_40 - y16_38 - y35_51 - y5_10 - y38_44 - y5_19 - y17_21 - y46_57 - y9_17 - y15_60 - y26_60 - y38_62 - y27_34 - y7_65 - y8_39 - y30_39 - y50_54 - y27_61 - y50_63 - y0_62 - y12_27 - y39_53 - y20_49 - y20_58 - y4_41 - y23_54 - y4_50 - y23_63 - y1_26 - y13_28 - y1_35 - y24_37 - y1_44 - y5_32 - y18_51 - y26_64 - y27_29 - y7_60 - y8_25 - y30_34 - y19_43 - y30_43 - y27_56 - y42_45 - y30_52 - y42_54 - y12_13 - y20_26 - y20_35 - y4_18 - y12_31 - y23_31 - y31_44 - y12_40 - y13_14 - y4_45 - y34_55 - y22_62 - y56_64 - y14_58 - y5_9 - y15_41 - y38_43 - y5_18 - y46_56 - y26_50 - y57_65 - y15_59 - y49_61 - y18_55 - y0_25 - y30_38 - y30_47 - y11_43 - y19_56 - y0_52 - y11_61 - y31_39 - y4_22 - y44_58 - y4_31 - y23_44 - y4_40 - y13_18 - y34_50 - y37_46 - y34_59 - y45_59 - y14_62 - y26_27 - y26_36 - y18_32 - y15_45 - y26_45 - y7_41 - y18_41 - y8_15 - y26_63 - y8_24 - y48_60 - y8_33 - y30_33 - y27_46 - y30_42 - y0_38 - y11_38 - y60_61 - y44_53 - y10_60 - y33_62 - y44_62 - y1_2 - y25_58 - y4_35 - y22_34 - y22_43 - y34_45 - y1_20 - y3_39 - y22_52 - y34_54 - y45_54 - y3_48 - y37_50 - y45_63 - y14_57 - y15_31 - y7_27 - y37_49 - y26_49 - y7_54 - y18_54 - y18_63 - y8_28 - y0_24 - y40_60 - y19_37 - y21_56 - y21_65 - y60_65 - y52_61 - y1_6 - y34_40 - y3_34 - y22_47 - y14_43 - y45_58 - y14_52 - y37_54 - y3_61 - y15_26 - y7_31 - y15_44 - y7_40 - y48_50 - y29_46 - y48_59 - y40_55 - y21_51 - y21_60 - y33_34 - y41_47 - y25_30 - y4_7 - y33_43 - y52_56 - y52_65 - y33_61 - y22_24 - y3_20 - y14_20 - y2_64 - y3_29 - y34_44 - y3_38 - y37_40 - y14_47 - y7_8 - y3_56
 Subject to
C1: x0+x1 <=1 
C2: x0+x2-y0_2 <=1 
C3: x0+x3 <=1 
C4: x0+x4 <=1 
C5: x0+x5-y0_5 <=1 
C6: x0+x7 <=1 
C7: x0+x8 <=1 
C8: x0+x11 <=1 
C9: x0+x12-y0_12 <=1 
C10: x0+x15 <=1 
C11: x0+x16-y0_16 <=1 
C12: x0+x17-y0_17 <=1 
C13: x0+x18 <=1 
C14: x0+x19 <=1 
C15: x0+x20 <=1 
C16: x0+x21 <=1 
C17: x0+x22-y0_22 <=1 
C18: x0+x24-y0_24 <=1 
C19: x0+x25-y0_25 <=1 
C20: x0+x27 <=1 
C21: x0+x28 <=1 
C22: x0+x29 <=1 
C23: x0+x30 <=1 
C24: x0+x32 <=1 
C25: x0+x34 <=1 
C26: x0+x36-y0_36 <=1 
C27: x0+x37 <=1 
C28: x0+x38-y0_38 <=1 
C29: x0+x39 <=1 
C30: x0+x40-y0_40 <=1 
C31: x0+x41 <=1 
C32: x0+x43 <=1 
C33: x0+x44 <=1 
C34: x0+x49-y0_49 <=1 
C35: x0+x50 <=1 
C36: x0+x52-y0_52 <=1 
C37: x0+x55 <=1 
C38: x0+x56 <=1 
C39: x0+x57 <=1 
C40: x0+x59 <=1 
C41: x0+x60-y0_60 <=1 
C42: x0+x62-y0_62 <=1 
C43: x0+x63-y0_63 <=1 
C44: x0+x65 <=1 
C45: x1+x2-y1_2 <=1 
C46: x1+x3 <=1 
C47: x1+x4-y1_4 <=1 
C48: x1+x5-y1_5 <=1 
C49: x1+x6-y1_6 <=1 
C50: x1+x9 <=1 
C51: x1+x11 <=1 
C52: x1+x13-y1_13 <=1 
C53: x1+x14 <=1 
C54: x1+x15 <=1 
C55: x1+x17 <=1 
C56: x1+x18 <=1 
C57: x1+x19-y1_19 <=1 
C58: x1+x20-y1_20 <=1 
C59: x1+x21 <=1 
C60: x1+x22-y1_22 <=1 
C61: x1+x23-y1_23 <=1 
C62: x1+x24 <=1 
C63: x1+x26-y1_26 <=1 
C64: x1+x27-y1_27 <=1 
C65: x1+x28 <=1 
C66: x1+x29 <=1 
C67: x1+x31 <=1 
C68: x1+x32 <=1 
C69: x1+x33 <=1 
C70: x1+x35-y1_35 <=1 
C71: x1+x38-y1_38 <=1 
C72: x1+x39 <=1 
C73: x1+x40-y1_40 <=1 
C74: x1+x41-y1_41 <=1 
C75: x1+x43 <=1 
C76: x1+x44-y1_44 <=1 
C77: x1+x45 <=1 
C78: x1+x47 <=1 
C79: x1+x48 <=1 
C80: x1+x49 <=1 
C81: x1+x50 <=1 
C82: x1+x53-y1_53 <=1 
C83: x1+x55 <=1 
C84: x1+x57 <=1 
C85: x1+x58 <=1 
C86: x1+x59-y1_59 <=1 
C87: x1+x60 <=1 
C88: x1+x61-y1_61 <=1 
C89: x1+x63-y1_63 <=1 
C90: x1+x64 <=1 
C91: x2+x3 <=1 
C92: x2+x4 <=1 
C93: x2+x5 <=1 
C94: x2+x7 <=1 
C95: x2+x8 <=1 
C96: x2+x9-y2_9 <=1 
C97: x2+x10 <=1 
C98: x2+x12-y2_12 <=1 
C99: x2+x15-y2_15 <=1 
C100: x2+x16 <=1 
C101: x2+x19-y2_19 <=1 
C102: x2+x21-y2_21 <=1 
C103: x2+x22 <=1 
C104: x2+x26 <=1 
C105: x2+x27-y2_27 <=1 
C106: x2+x28 <=1 
C107: x2+x29 <=1 
C108: x2+x31-y2_31 <=1 
C109: x2+x32 <=1 
C110: x2+x33 <=1 
C111: x2+x34-y2_34 <=1 
C112: x2+x35-y2_35 <=1 
C113: x2+x36-y2_36 <=1 
C114: x2+x37 <=1 
C115: x2+x41 <=1 
C116: x2+x43-y2_43 <=1 
C117: x2+x45-y2_45 <=1 
C118: x2+x47-y2_47 <=1 
C119: x2+x50-y2_50 <=1 
C120: x2+x51 <=1 
C121: x2+x52-y2_52 <=1 
C122: x2+x53 <=1 
C123: x2+x56-y2_56 <=1 
C124: x2+x60 <=1 
C125: x2+x61 <=1 
C126: x2+x62 <=1 
C127: x2+x63-y2_63 <=1 
C128: x2+x64-y2_64 <=1 
C129: x2+x65 <=1 
C130: x3+x5 <=1 
C131: x3+x6-y3_6 <=1 
C132: x3+x7 <=1 
C133: x3+x8 <=1 
C134: x3+x10-y3_10 <=1 
C135: x3+x12 <=1 
C136: x3+x13-y3_13 <=1 
C137: x3+x14-y3_14 <=1 
C138: x3+x18-y3_18 <=1 
C139: x3+x20-y3_20 <=1 
C140: x3+x22-y3_22 <=1 
C141: x3+x29-y3_29 <=1 
C142: x3+x30 <=1 
C143: x3+x31 <=1 
C144: x3+x33-y3_33 <=1 
C145: x3+x34-y3_34 <=1 
C146: x3+x35-y3_35 <=1 
C147: x3+x38-y3_38 <=1 
C148: x3+x39-y3_39 <=1 
C149: x3+x42 <=1 
C150: x3+x44 <=1 
C151: x3+x46-y3_46 <=1 
C152: x3+x48-y3_48 <=1 
C153: x3+x51 <=1 
C154: x3+x52 <=1 
C155: x3+x53 <=1 
C156: x3+x54-y3_54 <=1 
C157: x3+x55 <=1 
C158: x3+x56-y3_56 <=1 
C159: x3+x60 <=1 
C160: x3+x61-y3_61 <=1 
C161: x3+x63-y3_63 <=1 
C162: x3+x65 <=1 
C163: x4+x7-y4_7 <=1 
C164: x4+x9 <=1 
C165: x4+x11-y4_11 <=1 
C166: x4+x12 <=1 
C167: x4+x15-y4_15 <=1 
C168: x4+x16 <=1 
C169: x4+x17 <=1 
C170: x4+x18-y4_18 <=1 
C171: x4+x20-y4_20 <=1 
C172: x4+x22-y4_22 <=1 
C173: x4+x25-y4_25 <=1 
C174: x4+x26 <=1 
C175: x4+x30 <=1 
C176: x4+x31-y4_31 <=1 
C177: x4+x32 <=1 
C178: x4+x33 <=1 
C179: x4+x35-y4_35 <=1 
C180: x4+x37 <=1 
C181: x4+x38 <=1 
C182: x4+x40-y4_40 <=1 
C183: x4+x41-y4_41 <=1 
C184: x4+x43 <=1 
C185: x4+x44 <=1 
C186: x4+x45-y4_45 <=1 
C187: x4+x46 <=1 
C188: x4+x48 <=1 
C189: x4+x49-y4_49 <=1 
C190: x4+x50-y4_50 <=1 
C191: x4+x53 <=1 
C192: x4+x54 <=1 
C193: x4+x58-y4_58 <=1 
C194: x4+x59 <=1 
C195: x4+x60-y4_60 <=1 
C196: x4+x61 <=1 
C197: x4+x65-y4_65 <=1 
C198: x5+x8 <=1 
C199: x5+x9-y5_9 <=1 
C200: x5+x10-y5_10 <=1 
C201: x5+x11-y5_11 <=1 
C202: x5+x12 <=1 
C203: x5+x13 <=1 
C204: x5+x14 <=1 
C205: x5+x15-y5_15 <=1 
C206: x5+x16-y5_16 <=1 
C207: x5+x17-y5_17 <=1 
C208: x5+x18-y5_18 <=1 
C209: x5+x19-y5_19 <=1 
C210: x5+x21-y5_21 <=1 
C211: x5+x26-y5_26 <=1 
C212: x5+x27 <=1 
C213: x5+x28 <=1 
C214: x5+x29-y5_29 <=1 
C215: x5+x31 <=1 
C216: x5+x32-y5_32 <=1 
C217: x5+x33 <=1 
C218: x5+x34-y5_34 <=1 
C219: x5+x36-y5_36 <=1 
C220: x5+x37 <=1 
C221: x5+x38-y5_38 <=1 
C222: x5+x40-y5_40 <=1 
C223: x5+x41 <=1 
C224: x5+x42-y5_42 <=1 
C225: x5+x43-y5_43 <=1 
C226: x5+x45 <=1 
C227: x5+x46 <=1 
C228: x5+x47 <=1 
C229: x5+x49 <=1 
C230: x5+x52-y5_52 <=1 
C231: x5+x53 <=1 
C232: x5+x54 <=1 
C233: x5+x56 <=1 
C234: x5+x58 <=1 
C235: x5+x61 <=1 
C236: x5+x62-y5_62 <=1 
C237: x5+x63 <=1 
C238: x5+x64 <=1 
C239: x6+x7 <=1 
C240: x6+x9-y6_9 <=1 
C241: x6+x10 <=1 
C242: x6+x12-y6_12 <=1 
C243: x6+x15 <=1 
C244: x6+x16-y6_16 <=1 
C245: x6+x17-y6_17 <=1 
C246: x6+x18 <=1 
C247: x6+x21 <=1 
C248: x6+x22-y6_22 <=1 
C249: x6+x23 <=1 
C250: x6+x24-y6_24 <=1 
C251: x6+x26-y6_26 <=1 
C252: x6+x27 <=1 
C253: x6+x28 <=1 
C254: x6+x29 <=1 
C255: x6+x30 <=1 
C256: x6+x33-y6_33 <=1 
C257: x6+x34 <=1 
C258: x6+x36-y6_36 <=1 
C259: x6+x37 <=1 
C260: x6+x38 <=1 
C261: x6+x39-y6_39 <=1 
C262: x6+x41-y6_41 <=1 
C263: x6+x42 <=1 
C264: x6+x43 <=1 
C265: x6+x44 <=1 
C266: x6+x47 <=1 
C267: x6+x48 <=1 
C268: x6+x50-y6_50 <=1 
C269: x6+x52-y6_52 <=1 
C270: x6+x53 <=1 
C271: x6+x55-y6_55 <=1 
C272: x6+x56 <=1 
C273: x6+x57-y6_57 <=1 
C274: x6+x58 <=1 
C275: x6+x60-y6_60 <=1 
C276: x6+x61 <=1 
C277: x6+x62 <=1 
C278: x6+x64 <=1 
C279: x6+x65-y6_65 <=1 
C280: x7+x8-y7_8 <=1 
C281: x7+x10-y7_10 <=1 
C282: x7+x11 <=1 
C283: x7+x13 <=1 
C284: x7+x14 <=1 
C285: x7+x15 <=1 
C286: x7+x16-y7_16 <=1 
C287: x7+x19 <=1 
C288: x7+x21 <=1 
C289: x7+x23-y7_23 <=1 
C290: x7+x25 <=1 
C291: x7+x27-y7_27 <=1 
C292: x7+x28-y7_28 <=1 
C293: x7+x29 <=1 
C294: x7+x30-y7_30 <=1 
C295: x7+x31-y7_31 <=1 
C296: x7+x32 <=1 
C297: x7+x33 <=1 
C298: x7+x34-y7_34 <=1 
C299: x7+x35-y7_35 <=1 
C300: x7+x37 <=1 
C301: x7+x38-y7_38 <=1 
C302: x7+x39 <=1 
C303: x7+x40-y7_40 <=1 
C304: x7+x41-y7_41 <=1 
C305: x7+x44 <=1 
C306: x7+x47 <=1 
C307: x7+x49 <=1 
C308: x7+x52 <=1 
C309: x7+x54-y7_54 <=1 
C310: x7+x58-y7_58 <=1 
C311: x7+x59 <=1 
C312: x7+x60-y7_60 <=1 
C313: x7+x62 <=1 
C314: x7+x63-y7_63 <=1 
C315: x7+x64 <=1 
C316: x7+x65-y7_65 <=1 
C317: x8+x10 <=1 
C318: x8+x12-y8_12 <=1 
C319: x8+x13 <=1 
C320: x8+x14 <=1 
C321: x8+x15-y8_15 <=1 
C322: x8+x17-y8_17 <=1 
C323: x8+x19 <=1 
C324: x8+x22 <=1 
C325: x8+x23 <=1 
C326: x8+x24-y8_24 <=1 
C327: x8+x25-y8_25 <=1 
C328: x8+x26 <=1 
C329: x8+x27 <=1 
C330: x8+x28-y8_28 <=1 
C331: x8+x29 <=1 
C332: x8+x30 <=1 
C333: x8+x31 <=1 
C334: x8+x32 <=1 
C335: x8+x33-y8_33 <=1 
C336: x8+x35 <=1 
C337: x8+x36-y8_36 <=1 
C338: x8+x38 <=1 
C339: x8+x39-y8_39 <=1 
C340: x8+x40 <=1 
C341: x8+x41-y8_41 <=1 
C342: x8+x42 <=1 
C343: x8+x44 <=1 
C344: x8+x47 <=1 
C345: x8+x49 <=1 
C346: x8+x50-y8_50 <=1 
C347: x8+x51-y8_51 <=1 
C348: x8+x54 <=1 
C349: x8+x58-y8_58 <=1 
C350: x8+x60 <=1 
C351: x8+x61 <=1 
C352: x8+x62-y8_62 <=1 
C353: x8+x63-y8_63 <=1 
C354: x8+x64 <=1 
C355: x9+x10-y9_10 <=1 
C356: x9+x12 <=1 
C357: x9+x13 <=1 
C358: x9+x14-y9_14 <=1 
C359: x9+x15-y9_15 <=1 
C360: x9+x16 <=1 
C361: x9+x17-y9_17 <=1 
C362: x9+x18 <=1 
C363: x9+x20 <=1 
C364: x9+x22-y9_22 <=1 
C365: x9+x23 <=1 
C366: x9+x25-y9_25 <=1 
C367: x9+x26 <=1 
C368: x9+x27 <=1 
C369: x9+x28-y9_28 <=1 
C370: x9+x29 <=1 
C371: x9+x30-y9_30 <=1 
C372: x9+x31 <=1 
C373: x9+x33-y9_33 <=1 
C374: x9+x35 <=1 
C375: x9+x36-y9_36 <=1 
C376: x9+x40 <=1 
C377: x9+x41 <=1 
C378: x9+x42 <=1 
C379: x9+x43 <=1 
C380: x9+x44 <=1 
C381: x9+x45 <=1 
C382: x9+x46 <=1 
C383: x9+x48 <=1 
C384: x9+x50 <=1 
C385: x9+x51-y9_51 <=1 
C386: x9+x52 <=1 
C387: x9+x55 <=1 
C388: x9+x56-y9_56 <=1 
C389: x9+x57-y9_57 <=1 
C390: x9+x58-y9_58 <=1 
C391: x9+x59 <=1 
C392: x9+x62-y9_62 <=1 
C393: x9+x64 <=1 
C394: x9+x65 <=1 
C395: x10+x11 <=1 
C396: x10+x12 <=1 
C397: x10+x13 <=1 
C398: x10+x14-y10_14 <=1 
C399: x10+x16-y10_16 <=1 
C400: x10+x17-y10_17 <=1 
C401: x10+x18-y10_18 <=1 
C402: x10+x21-y10_21 <=1 
C403: x10+x23 <=1 
C404: x10+x24-y10_24 <=1 
C405: x10+x25-y10_25 <=1 
C406: x10+x26 <=1 
C407: x10+x28 <=1 
C408: x10+x30-y10_30 <=1 
C409: x10+x32-y10_32 <=1 
C410: x10+x34 <=1 
C411: x10+x37-y10_37 <=1 
C412: x10+x38-y10_38 <=1 
C413: x10+x39 <=1 
C414: x10+x40 <=1 
C415: x10+x42-y10_42 <=1 
C416: x10+x46 <=1 
C417: x10+x47 <=1 
C418: x10+x48 <=1 
C419: x10+x49 <=1 
C420: x10+x52 <=1 
C421: x10+x54-y10_54 <=1 
C422: x10+x56 <=1 
C423: x10+x57-y10_57 <=1 
C424: x10+x59 <=1 
C425: x10+x60-y10_60 <=1 
C426: x10+x61 <=1 
C427: x10+x62 <=1 
C428: x11+x12 <=1 
C429: x11+x13 <=1 
C430: x11+x14 <=1 
C431: x11+x15 <=1 
C432: x11+x16-y11_16 <=1 
C433: x11+x18 <=1 
C434: x11+x23-y11_23 <=1 
C435: x11+x25 <=1 
C436: x11+x28 <=1 
C437: x11+x32-y11_32 <=1 
C438: x11+x36 <=1 
C439: x11+x37-y11_37 <=1 
C440: x11+x38-y11_38 <=1 
C441: x11+x39 <=1 
C442: x11+x41-y11_41 <=1 
C443: x11+x42 <=1 
C444: x11+x43-y11_43 <=1 
C445: x11+x44 <=1 
C446: x11+x45 <=1 
C447: x11+x50-y11_50 <=1 
C448: x11+x51 <=1 
C449: x11+x55-y11_55 <=1 
C450: x11+x57 <=1 
C451: x11+x59-y11_59 <=1 
C452: x11+x60-y11_60 <=1 
C453: x11+x61-y11_61 <=1 
C454: x11+x62 <=1 
C455: x11+x64 <=1 
C456: x11+x65-y11_65 <=1 
C457: x12+x13-y12_13 <=1 
C458: x12+x14-y12_14 <=1 
C459: x12+x16 <=1 
C460: x12+x23-y12_23 <=1 
C461: x12+x24 <=1 
C462: x12+x27-y12_27 <=1 
C463: x12+x29 <=1 
C464: x12+x31-y12_31 <=1 
C465: x12+x32 <=1 
C466: x12+x38-y12_38 <=1 
C467: x12+x39-y12_39 <=1 
C468: x12+x40-y12_40 <=1 
C469: x12+x41-y12_41 <=1 
C470: x12+x42-y12_42 <=1 
C471: x12+x43-y12_43 <=1 
C472: x12+x44-y12_44 <=1 
C473: x12+x45 <=1 
C474: x12+x46 <=1 
C475: x12+x48 <=1 
C476: x12+x50 <=1 
C477: x12+x51 <=1 
C478: x12+x53-y12_53 <=1 
C479: x12+x55 <=1 
C480: x12+x56-y12_56 <=1 
C481: x12+x58-y12_58 <=1 
C482: x12+x59 <=1 
C483: x12+x61 <=1 
C484: x12+x62-y12_62 <=1 
C485: x12+x63-y12_63 <=1 
C486: x12+x65-y12_65 <=1 
C487: x13+x14-y13_14 <=1 
C488: x13+x18-y13_18 <=1 
C489: x13+x21 <=1 
C490: x13+x22 <=1 
C491: x13+x25-y13_25 <=1 
C492: x13+x26-y13_26 <=1 
C493: x13+x27 <=1 
C494: x13+x28-y13_28 <=1 
C495: x13+x30-y13_30 <=1 
C496: x13+x33-y13_33 <=1 
C497: x13+x35-y13_35 <=1 
C498: x13+x37 <=1 
C499: x13+x39-y13_39 <=1 
C500: x13+x41 <=1 
C501: x13+x42 <=1 
C502: x13+x43 <=1 
C503: x13+x44-y13_44 <=1 
C504: x13+x45 <=1 
C505: x13+x47 <=1 
C506: x13+x49 <=1 
C507: x13+x51-y13_51 <=1 
C508: x13+x52 <=1 
C509: x13+x54 <=1 
C510: x13+x55 <=1 
C511: x13+x57-y13_57 <=1 
C512: x13+x58 <=1 
C513: x13+x59-y13_59 <=1 
C514: x13+x60 <=1 
C515: x13+x61 <=1 
C516: x13+x62-y13_62 <=1 
C517: x13+x64-y13_64 <=1 
C518: x14+x17-y14_17 <=1 
C519: x14+x19-y14_19 <=1 
C520: x14+x20-y14_20 <=1 
C521: x14+x21-y14_21 <=1 
C522: x14+x22-y14_22 <=1 
C523: x14+x23-y14_23 <=1 
C524: x14+x25 <=1 
C525: x14+x26-y14_26 <=1 
C526: x14+x30 <=1 
C527: x14+x32 <=1 
C528: x14+x33 <=1 
C529: x14+x35 <=1 
C530: x14+x36 <=1 
C531: x14+x37 <=1 
C532: x14+x38 <=1 
C533: x14+x39 <=1 
C534: x14+x40 <=1 
C535: x14+x42 <=1 
C536: x14+x43-y14_43 <=1 
C537: x14+x45-y14_45 <=1 
C538: x14+x46 <=1 
C539: x14+x47-y14_47 <=1 
C540: x14+x48 <=1 
C541: x14+x49 <=1 
C542: x14+x50-y14_50 <=1 
C543: x14+x51 <=1 
C544: x14+x52-y14_52 <=1 
C545: x14+x56 <=1 
C546: x14+x57-y14_57 <=1 
C547: x14+x58-y14_58 <=1 
C548: x14+x61 <=1 
C549: x14+x62-y14_62 <=1 
C550: x14+x63 <=1 
C551: x14+x64-y14_64 <=1 
C552: x15+x17 <=1 
C553: x15+x20-y15_20 <=1 
C554: x15+x22 <=1 
C555: x15+x25 <=1 
C556: x15+x26-y15_26 <=1 
C557: x15+x28 <=1 
C558: x15+x29-y15_29 <=1 
C559: x15+x31-y15_31 <=1 
C560: x15+x33 <=1 
C561: x15+x34 <=1 
C562: x15+x37 <=1 
C563: x15+x39-y15_39 <=1 
C564: x15+x41-y15_41 <=1 
C565: x15+x42-y15_42 <=1 
C566: x15+x44-y15_44 <=1 
C567: x15+x45-y15_45 <=1 
C568: x15+x47-y15_47 <=1 
C569: x15+x50 <=1 
C570: x15+x54 <=1 
C571: x15+x56 <=1 
C572: x15+x57 <=1 
C573: x15+x59-y15_59 <=1 
C574: x15+x60-y15_60 <=1 
C575: x15+x61 <=1 
C576: x15+x65 <=1 
C577: x16+x19 <=1 
C578: x16+x21-y16_21 <=1 
C579: x16+x22 <=1 
C580: x16+x23 <=1 
C581: x16+x25 <=1 
C582: x16+x26-y16_26 <=1 
C583: x16+x29-y16_29 <=1 
C584: x16+x31 <=1 
C585: x16+x36 <=1 
C586: x16+x37 <=1 
C587: x16+x38-y16_38 <=1 
C588: x16+x39-y16_39 <=1 
C589: x16+x41 <=1 
C590: x16+x44 <=1 
C591: x16+x46-y16_46 <=1 
C592: x16+x48-y16_48 <=1 
C593: x16+x50-y16_50 <=1 
C594: x16+x51-y16_51 <=1 
C595: x16+x52 <=1 
C596: x16+x53-y16_53 <=1 
C597: x16+x55-y16_55 <=1 
C598: x16+x56-y16_56 <=1 
C599: x16+x57-y16_57 <=1 
C600: x16+x60-y16_60 <=1 
C601: x16+x61-y16_61 <=1 
C602: x16+x62 <=1 
C603: x16+x63 <=1 
C604: x16+x64 <=1 
C605: x16+x65-y16_65 <=1 
C606: x17+x21-y17_21 <=1 
C607: x17+x24-y17_24 <=1 
C608: x17+x25 <=1 
C609: x17+x26 <=1 
C610: x17+x28-y17_28 <=1 
C611: x17+x29 <=1 
C612: x17+x31 <=1 
C613: x17+x32 <=1 
C614: x17+x33-y17_33 <=1 
C615: x17+x34 <=1 
C616: x17+x39-y17_39 <=1 
C617: x17+x41 <=1 
C618: x17+x42 <=1 
C619: x17+x45 <=1 
C620: x17+x46-y17_46 <=1 
C621: x17+x48-y17_48 <=1 
C622: x17+x49 <=1 
C623: x17+x52-y17_52 <=1 
C624: x17+x53-y17_53 <=1 
C625: x17+x54 <=1 
C626: x17+x56-y17_56 <=1 
C627: x17+x57 <=1 
C628: x17+x59 <=1 
C629: x17+x60-y17_60 <=1 
C630: x17+x62-y17_62 <=1 
C631: x17+x64 <=1 
C632: x17+x65-y17_65 <=1 
C633: x18+x20 <=1 
C634: x18+x22 <=1 
C635: x18+x23-y18_23 <=1 
C636: x18+x26-y18_26 <=1 
C637: x18+x28 <=1 
C638: x18+x29 <=1 
C639: x18+x30 <=1 
C640: x18+x31 <=1 
C641: x18+x32-y18_32 <=1 
C642: x18+x33-y18_33 <=1 
C643: x18+x34-y18_34 <=1 
C644: x18+x37 <=1 
C645: x18+x39 <=1 
C646: x18+x40 <=1 
C647: x18+x41-y18_41 <=1 
C648: x18+x43 <=1 
C649: x18+x45 <=1 
C650: x18+x46 <=1 
C651: x18+x47 <=1 
C652: x18+x50 <=1 
C653: x18+x51-y18_51 <=1 
C654: x18+x52-y18_52 <=1 
C655: x18+x53-y18_53 <=1 
C656: x18+x54-y18_54 <=1 
C657: x18+x55-y18_55 <=1 
C658: x18+x56 <=1 
C659: x18+x58-y18_58 <=1 
C660: x18+x59 <=1 
C661: x18+x60 <=1 
C662: x18+x62 <=1 
C663: x18+x63-y18_63 <=1 
C664: x19+x20 <=1 
C665: x19+x25 <=1 
C666: x19+x26 <=1 
C667: x19+x27-y19_27 <=1 
C668: x19+x32 <=1 
C669: x19+x35-y19_35 <=1 
C670: x19+x36-y19_36 <=1 
C671: x19+x37-y19_37 <=1 
C672: x19+x39 <=1 
C673: x19+x41 <=1 
C674: x19+x43-y19_43 <=1 
C675: x19+x45 <=1 
C676: x19+x47 <=1 
C677: x19+x48 <=1 
C678: x19+x49 <=1 
C679: x19+x51 <=1 
C680: x19+x53-y19_53 <=1 
C681: x19+x54 <=1 
C682: x19+x56-y19_56 <=1 
C683: x19+x59 <=1 
C684: x19+x61 <=1 
C685: x19+x62-y19_62 <=1 
C686: x19+x65-y19_65 <=1 
C687: x20+x22 <=1 
C688: x20+x23 <=1 
C689: x20+x26-y20_26 <=1 
C690: x20+x27 <=1 
C691: x20+x28-y20_28 <=1 
C692: x20+x33 <=1 
C693: x20+x35-y20_35 <=1 
C694: x20+x38 <=1 
C695: x20+x42-y20_42 <=1 
C696: x20+x45-y20_45 <=1 
C697: x20+x46 <=1 
C698: x20+x47-y20_47 <=1 
C699: x20+x48-y20_48 <=1 
C700: x20+x49-y20_49 <=1 
C701: x20+x51-y20_51 <=1 
C702: x20+x53 <=1 
C703: x20+x57 <=1 
C704: x20+x58-y20_58 <=1 
C705: x20+x59-y20_59 <=1 
C706: x20+x60 <=1 
C707: x20+x61-y20_61 <=1 
C708: x20+x64 <=1 
C709: x21+x24-y21_24 <=1 
C710: x21+x25-y21_25 <=1 
C711: x21+x26 <=1 
C712: x21+x27 <=1 
C713: x21+x29-y21_29 <=1 
C714: x21+x31-y21_31 <=1 
C715: x21+x32 <=1 
C716: x21+x33-y21_33 <=1 
C717: x21+x35 <=1 
C718: x21+x37 <=1 
C719: x21+x38 <=1 
C720: x21+x40-y21_40 <=1 
C721: x21+x42-y21_42 <=1 
C722: x21+x44 <=1 
C723: x21+x45-y21_45 <=1 
C724: x21+x46-y21_46 <=1 
C725: x21+x49-y21_49 <=1 
C726: x21+x51-y21_51 <=1 
C727: x21+x53 <=1 
C728: x21+x54 <=1 
C729: x21+x55 <=1 
C730: x21+x56-y21_56 <=1 
C731: x21+x58-y21_58 <=1 
C732: x21+x59-y21_59 <=1 
C733: x21+x60-y21_60 <=1 
C734: x21+x61 <=1 
C735: x21+x64-y21_64 <=1 
C736: x21+x65-y21_65 <=1 
C737: x22+x23 <=1 
C738: x22+x24-y22_24 <=1 
C739: x22+x25-y22_25 <=1 
C740: x22+x26-y22_26 <=1 
C741: x22+x27 <=1 
C742: x22+x28 <=1 
C743: x22+x31-y22_31 <=1 
C744: x22+x33 <=1 
C745: x22+x34-y22_34 <=1 
C746: x22+x35-y22_35 <=1 
C747: x22+x38 <=1 
C748: x22+x40 <=1 
C749: x22+x43-y22_43 <=1 
C750: x22+x44 <=1 
C751: x22+x45 <=1 
C752: x22+x47-y22_47 <=1 
C753: x22+x48 <=1 
C754: x22+x50-y22_50 <=1 
C755: x22+x51 <=1 
C756: x22+x52-y22_52 <=1 
C757: x22+x54 <=1 
C758: x22+x56 <=1 
C759: x22+x57 <=1 
C760: x22+x58-y22_58 <=1 
C761: x22+x59 <=1 
C762: x22+x61 <=1 
C763: x22+x62-y22_62 <=1 
C764: x22+x64-y22_64 <=1 
C765: x23+x25-y23_25 <=1 
C766: x23+x26 <=1 
C767: x23+x27 <=1 
C768: x23+x30 <=1 
C769: x23+x31-y23_31 <=1 
C770: x23+x32 <=1 
C771: x23+x35 <=1 
C772: x23+x36 <=1 
C773: x23+x38-y23_38 <=1 
C774: x23+x39-y23_39 <=1 
C775: x23+x40 <=1 
C776: x23+x42 <=1 
C777: x23+x43 <=1 
C778: x23+x44-y23_44 <=1 
C779: x23+x45 <=1 
C780: x23+x46 <=1 
C781: x23+x47-y23_47 <=1 
C782: x23+x51 <=1 
C783: x23+x52 <=1 
C784: x23+x53-y23_53 <=1 
C785: x23+x54-y23_54 <=1 
C786: x23+x55-y23_55 <=1 
C787: x23+x57-y23_57 <=1 
C788: x23+x58-y23_58 <=1 
C789: x23+x60-y23_60 <=1 
C790: x23+x62 <=1 
C791: x23+x63-y23_63 <=1 
C792: x23+x64 <=1 
C793: x24+x25 <=1 
C794: x24+x27 <=1 
C795: x24+x28 <=1 
C796: x24+x29-y24_29 <=1 
C797: x24+x30-y24_30 <=1 
C798: x24+x31 <=1 
C799: x24+x35 <=1 
C800: x24+x37-y24_37 <=1 
C801: x24+x38 <=1 
C802: x24+x39 <=1 
C803: x24+x40-y24_40 <=1 
C804: x24+x44-y24_44 <=1 
C805: x24+x46 <=1 
C806: x24+x48 <=1 
C807: x24+x49-y24_49 <=1 
C808: x24+x50-y24_50 <=1 
C809: x24+x59 <=1 
C810: x24+x60-y24_60 <=1 
C811: x24+x61 <=1 
C812: x24+x62 <=1 
C813: x24+x63 <=1 
C814: x24+x65-y24_65 <=1 
C815: x25+x26 <=1 
C816: x25+x27-y25_27 <=1 
C817: x25+x29-y25_29 <=1 
C818: x25+x30-y25_30 <=1 
C819: x25+x33 <=1 
C820: x25+x35-y25_35 <=1 
C821: x25+x36-y25_36 <=1 
C822: x25+x37-y25_37 <=1 
C823: x25+x40-y25_40 <=1 
C824: x25+x41 <=1 
C825: x25+x50-y25_50 <=1 
C826: x25+x51-y25_51 <=1 
C827: x25+x53 <=1 
C828: x25+x54-y25_54 <=1 
C829: x25+x57 <=1 
C830: x25+x58-y25_58 <=1 
C831: x25+x61 <=1 
C832: x25+x62 <=1 
C833: x25+x63 <=1 
C834: x25+x64 <=1 
C835: x26+x27-y26_27 <=1 
C836: x26+x28-y26_28 <=1 
C837: x26+x29 <=1 
C838: x26+x31 <=1 
C839: x26+x33 <=1 
C840: x26+x34-y26_34 <=1 
C841: x26+x35 <=1 
C842: x26+x36-y26_36 <=1 
C843: x26+x37-y26_37 <=1 
C844: x26+x39 <=1 
C845: x26+x40 <=1 
C846: x26+x41 <=1 
C847: x26+x42-y26_42 <=1 
C848: x26+x44 <=1 
C849: x26+x45-y26_45 <=1 
C850: x26+x46-y26_46 <=1 
C851: x26+x48-y26_48 <=1 
C852: x26+x49-y26_49 <=1 
C853: x26+x50-y26_50 <=1 
C854: x26+x52-y26_52 <=1 
C855: x26+x53-y26_53 <=1 
C856: x26+x54 <=1 
C857: x26+x56 <=1 
C858: x26+x57 <=1 
C859: x26+x59 <=1 
C860: x26+x60-y26_60 <=1 
C861: x26+x62-y26_62 <=1 
C862: x26+x63-y26_63 <=1 
C863: x26+x64-y26_64 <=1 
C864: x26+x65-y26_65 <=1 
C865: x27+x29-y27_29 <=1 
C866: x27+x34-y27_34 <=1 
C867: x27+x35-y27_35 <=1 
C868: x27+x36-y27_36 <=1 
C869: x27+x37 <=1 
C870: x27+x41 <=1 
C871: x27+x44-y27_44 <=1 
C872: x27+x45-y27_45 <=1 
C873: x27+x46-y27_46 <=1 
C874: x27+x49 <=1 
C875: x27+x50-y27_50 <=1 
C876: x27+x52 <=1 
C877: x27+x53 <=1 
C878: x27+x56-y27_56 <=1 
C879: x27+x58 <=1 
C880: x27+x60 <=1 
C881: x27+x61-y27_61 <=1 
C882: x27+x62 <=1 
C883: x28+x29 <=1 
C884: x28+x31 <=1 
C885: x28+x32-y28_32 <=1 
C886: x28+x33-y28_33 <=1 
C887: x28+x35-y28_35 <=1 
C888: x28+x37-y28_37 <=1 
C889: x28+x38-y28_38 <=1 
C890: x28+x39 <=1 
C891: x28+x40 <=1 
C892: x28+x42 <=1 
C893: x28+x44 <=1 
C894: x28+x45-y28_45 <=1 
C895: x28+x46-y28_46 <=1 
C896: x28+x47-y28_47 <=1 
C897: x28+x48 <=1 
C898: x28+x49-y28_49 <=1 
C899: x28+x51-y28_51 <=1 
C900: x28+x52-y28_52 <=1 
C901: x28+x53-y28_53 <=1 
C902: x28+x54 <=1 
C903: x28+x55 <=1 
C904: x28+x56 <=1 
C905: x28+x57 <=1 
C906: x28+x58 <=1 
C907: x28+x59 <=1 
C908: x28+x60 <=1 
C909: x28+x61 <=1 
C910: x28+x62 <=1 
C911: x28+x65 <=1 
C912: x29+x30 <=1 
C913: x29+x31-y29_31 <=1 
C914: x29+x32 <=1 
C915: x29+x34 <=1 
C916: x29+x35-y29_35 <=1 
C917: x29+x37-y29_37 <=1 
C918: x29+x39 <=1 
C919: x29+x41-y29_41 <=1 
C920: x29+x42-y29_42 <=1 
C921: x29+x43-y29_43 <=1 
C922: x29+x44 <=1 
C923: x29+x45 <=1 
C924: x29+x46-y29_46 <=1 
C925: x29+x47 <=1 
C926: x29+x48 <=1 
C927: x29+x51 <=1 
C928: x29+x52-y29_52 <=1 
C929: x29+x53-y29_53 <=1 
C930: x29+x54 <=1 
C931: x29+x55 <=1 
C932: x29+x56 <=1 
C933: x29+x57-y29_57 <=1 
C934: x29+x58 <=1 
C935: x29+x61-y29_61 <=1 
C936: x29+x62-y29_62 <=1 
C937: x30+x32 <=1 
C938: x30+x33-y30_33 <=1 
C939: x30+x34-y30_34 <=1 
C940: x30+x35-y30_35 <=1 
C941: x30+x38-y30_38 <=1 
C942: x30+x39-y30_39 <=1 
C943: x30+x40 <=1 
C944: x30+x42-y30_42 <=1 
C945: x30+x43-y30_43 <=1 
C946: x30+x44 <=1 
C947: x30+x45-y30_45 <=1 
C948: x30+x46-y30_46 <=1 
C949: x30+x47-y30_47 <=1 
C950: x30+x48 <=1 
C951: x30+x49 <=1 
C952: x30+x52-y30_52 <=1 
C953: x30+x53-y30_53 <=1 
C954: x30+x55 <=1 
C955: x30+x57 <=1 
C956: x30+x58-y30_58 <=1 
C957: x30+x59-y30_59 <=1 
C958: x30+x60-y30_60 <=1 
C959: x30+x62-y30_62 <=1 
C960: x30+x63 <=1 
C961: x30+x65 <=1 
C962: x31+x32-y31_32 <=1 
C963: x31+x34 <=1 
C964: x31+x35 <=1 
C965: x31+x36 <=1 
C966: x31+x39-y31_39 <=1 
C967: x31+x41 <=1 
C968: x31+x43 <=1 
C969: x31+x44-y31_44 <=1 
C970: x31+x46 <=1 
C971: x31+x48-y31_48 <=1 
C972: x31+x49 <=1 
C973: x31+x50 <=1 
C974: x31+x53-y31_53 <=1 
C975: x31+x54-y31_54 <=1 
C976: x31+x57 <=1 
C977: x31+x60-y31_60 <=1 
C978: x31+x61 <=1 
C979: x31+x62 <=1 
C980: x31+x63 <=1 
C981: x31+x64-y31_64 <=1 
C982: x31+x65-y31_65 <=1 
C983: x32+x33-y32_33 <=1 
C984: x32+x34-y32_34 <=1 
C985: x32+x35 <=1 
C986: x32+x38 <=1 
C987: x32+x40 <=1 
C988: x32+x41 <=1 
C989: x32+x43-y32_43 <=1 
C990: x32+x46-y32_46 <=1 
C991: x32+x47-y32_47 <=1 
C992: x32+x48 <=1 
C993: x32+x51-y32_51 <=1 
C994: x32+x52 <=1 
C995: x32+x54 <=1 
C996: x32+x55-y32_55 <=1 
C997: x32+x56 <=1 
C998: x32+x57 <=1 
C999: x32+x59 <=1 
C1000: x32+x61-y32_61 <=1 
C1001: x32+x62 <=1 
C1002: x32+x64 <=1 
C1003: x32+x65 <=1 
C1004: x33+x34-y33_34 <=1 
C1005: x33+x35 <=1 
C1006: x33+x36-y33_36 <=1 
C1007: x33+x40-y33_40 <=1 
C1008: x33+x41-y33_41 <=1 
C1009: x33+x43-y33_43 <=1 
C1010: x33+x47-y33_47 <=1 
C1011: x33+x49-y33_49 <=1 
C1012: x33+x50-y33_50 <=1 
C1013: x33+x51-y33_51 <=1 
C1014: x33+x55 <=1 
C1015: x33+x57 <=1 
C1016: x33+x59 <=1 
C1017: x33+x60 <=1 
C1018: x33+x61-y33_61 <=1 
C1019: x33+x62-y33_62 <=1 
C1020: x33+x63-y33_63 <=1 
C1021: x33+x64 <=1 
C1022: x33+x65 <=1 
C1023: x34+x37-y34_37 <=1 
C1024: x34+x38 <=1 
C1025: x34+x39 <=1 
C1026: x34+x40-y34_40 <=1 
C1027: x34+x42-y34_42 <=1 
C1028: x34+x44-y34_44 <=1 
C1029: x34+x45-y34_45 <=1 
C1030: x34+x47-y34_47 <=1 
C1031: x34+x50-y34_50 <=1 
C1032: x34+x51-y34_51 <=1 
C1033: x34+x53-y34_53 <=1 
C1034: x34+x54-y34_54 <=1 
C1035: x34+x55-y34_55 <=1 
C1036: x34+x56 <=1 
C1037: x34+x59-y34_59 <=1 
C1038: x34+x61 <=1 
C1039: x34+x62 <=1 
C1040: x34+x63 <=1 
C1041: x34+x65 <=1 
C1042: x35+x36 <=1 
C1043: x35+x37 <=1 
C1044: x35+x38-y35_38 <=1 
C1045: x35+x39 <=1 
C1046: x35+x44 <=1 
C1047: x35+x45-y35_45 <=1 
C1048: x35+x46 <=1 
C1049: x35+x50-y35_50 <=1 
C1050: x35+x51-y35_51 <=1 
C1051: x35+x52 <=1 
C1052: x35+x53 <=1 
C1053: x35+x56 <=1 
C1054: x35+x57 <=1 
C1055: x35+x58 <=1 
C1056: x35+x62 <=1 
C1057: x35+x63-y35_63 <=1 
C1058: x35+x65 <=1 
C1059: x36+x37-y36_37 <=1 
C1060: x36+x38 <=1 
C1061: x36+x40-y36_40 <=1 
C1062: x36+x41 <=1 
C1063: x36+x42 <=1 
C1064: x36+x45-y36_45 <=1 
C1065: x36+x47 <=1 
C1066: x36+x48 <=1 
C1067: x36+x49 <=1 
C1068: x36+x50 <=1 
C1069: x36+x51 <=1 
C1070: x36+x52 <=1 
C1071: x36+x55 <=1 
C1072: x36+x58 <=1 
C1073: x36+x59-y36_59 <=1 
C1074: x36+x60 <=1 
C1075: x36+x61 <=1 
C1076: x36+x64-y36_64 <=1 
C1077: x37+x40-y37_40 <=1 
C1078: x37+x41 <=1 
C1079: x37+x43 <=1 
C1080: x37+x44-y37_44 <=1 
C1081: x37+x46-y37_46 <=1 
C1082: x37+x48-y37_48 <=1 
C1083: x37+x49-y37_49 <=1 
C1084: x37+x50-y37_50 <=1 
C1085: x37+x51 <=1 
C1086: x37+x54-y37_54 <=1 
C1087: x37+x56 <=1 
C1088: x37+x57 <=1 
C1089: x37+x59 <=1 
C1090: x37+x61 <=1 
C1091: x37+x64 <=1 
C1092: x37+x65 <=1 
C1093: x38+x39 <=1 
C1094: x38+x40 <=1 
C1095: x38+x43-y38_43 <=1 
C1096: x38+x44-y38_44 <=1 
C1097: x38+x46 <=1 
C1098: x38+x49-y38_49 <=1 
C1099: x38+x50 <=1 
C1100: x38+x51-y38_51 <=1 
C1101: x38+x52 <=1 
C1102: x38+x55-y38_55 <=1 
C1103: x38+x56 <=1 
C1104: x38+x58-y38_58 <=1 
C1105: x38+x59-y38_59 <=1 
C1106: x38+x60-y38_60 <=1 
C1107: x38+x62-y38_62 <=1 
C1108: x38+x63-y38_63 <=1 
C1109: x38+x64-y38_64 <=1 
C1110: x38+x65 <=1 
C1111: x39+x40-y39_40 <=1 
C1112: x39+x41-y39_41 <=1 
C1113: x39+x42 <=1 
C1114: x39+x49 <=1 
C1115: x39+x51-y39_51 <=1 
C1116: x39+x52 <=1 
C1117: x39+x53-y39_53 <=1 
C1118: x39+x56 <=1 
C1119: x39+x59-y39_59 <=1 
C1120: x39+x61-y39_61 <=1 
C1121: x39+x62-y39_62 <=1 
C1122: x39+x64 <=1 
C1123: x39+x65 <=1 
C1124: x40+x41 <=1 
C1125: x40+x42-y40_42 <=1 
C1126: x40+x45 <=1 
C1127: x40+x49-y40_49 <=1 
C1128: x40+x50-y40_50 <=1 
C1129: x40+x51 <=1 
C1130: x40+x52 <=1 
C1131: x40+x55-y40_55 <=1 
C1132: x40+x56 <=1 
C1133: x40+x57-y40_57 <=1 
C1134: x40+x59 <=1 
C1135: x40+x60-y40_60 <=1 
C1136: x40+x61 <=1 
C1137: x40+x63-y40_63 <=1 
C1138: x40+x65 <=1 
C1139: x41+x42-y41_42 <=1 
C1140: x41+x45-y41_45 <=1 
C1141: x41+x47-y41_47 <=1 
C1142: x41+x48 <=1 
C1143: x41+x49 <=1 
C1144: x41+x51 <=1 
C1145: x41+x52 <=1 
C1146: x41+x53 <=1 
C1147: x41+x54 <=1 
C1148: x41+x56 <=1 
C1149: x41+x57 <=1 
C1150: x41+x58 <=1 
C1151: x41+x59-y41_59 <=1 
C1152: x42+x43-y42_43 <=1 
C1153: x42+x44 <=1 
C1154: x42+x45-y42_45 <=1 
C1155: x42+x49 <=1 
C1156: x42+x50 <=1 
C1157: x42+x51-y42_51 <=1 
C1158: x42+x53 <=1 
C1159: x42+x54-y42_54 <=1 
C1160: x42+x55-y42_55 <=1 
C1161: x42+x56-y42_56 <=1 
C1162: x42+x57 <=1 
C1163: x42+x58-y42_58 <=1 
C1164: x42+x60 <=1 
C1165: x42+x62-y42_62 <=1 
C1166: x42+x63-y42_63 <=1 
C1167: x42+x65-y42_65 <=1 
C1168: x43+x45-y43_45 <=1 
C1169: x43+x46 <=1 
C1170: x43+x48 <=1 
C1171: x43+x49 <=1 
C1172: x43+x51 <=1 
C1173: x43+x52 <=1 
C1174: x43+x53-y43_53 <=1 
C1175: x43+x54 <=1 
C1176: x43+x56 <=1 
C1177: x43+x57-y43_57 <=1 
C1178: x43+x59-y43_59 <=1 
C1179: x43+x60 <=1 
C1180: x43+x63 <=1 
C1181: x43+x64-y43_64 <=1 
C1182: x43+x65 <=1 
C1183: x44+x45 <=1 
C1184: x44+x46-y44_46 <=1 
C1185: x44+x48 <=1 
C1186: x44+x49 <=1 
C1187: x44+x52 <=1 
C1188: x44+x53-y44_53 <=1 
C1189: x44+x55-y44_55 <=1 
C1190: x44+x58-y44_58 <=1 
C1191: x44+x60-y44_60 <=1 
C1192: x44+x62-y44_62 <=1 
C1193: x44+x63 <=1 
C1194: x44+x64-y44_64 <=1 
C1195: x44+x65 <=1 
C1196: x45+x46 <=1 
C1197: x45+x51 <=1 
C1198: x45+x52 <=1 
C1199: x45+x53 <=1 
C1200: x45+x54-y45_54 <=1 
C1201: x45+x56-y45_56 <=1 
C1202: x45+x57-y45_57 <=1 
C1203: x45+x58-y45_58 <=1 
C1204: x45+x59-y45_59 <=1 
C1205: x45+x60 <=1 
C1206: x45+x62-y45_62 <=1 
C1207: x45+x63-y45_63 <=1 
C1208: x45+x64 <=1 
C1209: x46+x48 <=1 
C1210: x46+x50-y46_50 <=1 
C1211: x46+x51 <=1 
C1212: x46+x53-y46_53 <=1 
C1213: x46+x54 <=1 
C1214: x46+x56-y46_56 <=1 
C1215: x46+x57-y46_57 <=1 
C1216: x46+x58 <=1 
C1217: x46+x59-y46_59 <=1 
C1218: x46+x60 <=1 
C1219: x46+x61 <=1 
C1220: x46+x63-y46_63 <=1 
C1221: x46+x64 <=1 
C1222: x47+x48-y47_48 <=1 
C1223: x47+x49 <=1 
C1224: x47+x50 <=1 
C1225: x47+x51-y47_51 <=1 
C1226: x47+x52 <=1 
C1227: x47+x53-y47_53 <=1 
C1228: x47+x54 <=1 
C1229: x47+x55 <=1 
C1230: x47+x56-y47_56 <=1 
C1231: x47+x59-y47_59 <=1 
C1232: x47+x60 <=1 
C1233: x47+x61 <=1 
C1234: x48+x50-y48_50 <=1 
C1235: x48+x51-y48_51 <=1 
C1236: x48+x52 <=1 
C1237: x48+x53-y48_53 <=1 
C1238: x48+x54 <=1 
C1239: x48+x56-y48_56 <=1 
C1240: x48+x57 <=1 
C1241: x48+x58 <=1 
C1242: x48+x59-y48_59 <=1 
C1243: x48+x60-y48_60 <=1 
C1244: x48+x61 <=1 
C1245: x48+x62-y48_62 <=1 
C1246: x49+x50 <=1 
C1247: x49+x54 <=1 
C1248: x49+x55-y49_55 <=1 
C1249: x49+x58-y49_58 <=1 
C1250: x49+x59-y49_59 <=1 
C1251: x49+x60 <=1 
C1252: x49+x61-y49_61 <=1 
C1253: x49+x62 <=1 
C1254: x49+x64-y49_64 <=1 
C1255: x50+x52-y50_52 <=1 
C1256: x50+x53 <=1 
C1257: x50+x54-y50_54 <=1 
C1258: x50+x55-y50_55 <=1 
C1259: x50+x58-y50_58 <=1 
C1260: x50+x59 <=1 
C1261: x50+x60-y50_60 <=1 
C1262: x50+x62-y50_62 <=1 
C1263: x50+x63-y50_63 <=1 
C1264: x50+x64-y50_64 <=1 
C1265: x50+x65 <=1 
C1266: x51+x54-y51_54 <=1 
C1267: x51+x56-y51_56 <=1 
C1268: x51+x57-y51_57 <=1 
C1269: x51+x58 <=1 
C1270: x51+x59 <=1 
C1271: x51+x62-y51_62 <=1 
C1272: x51+x63 <=1 
C1273: x52+x55 <=1 
C1274: x52+x56-y52_56 <=1 
C1275: x52+x57 <=1 
C1276: x52+x58 <=1 
C1277: x52+x60 <=1 
C1278: x52+x61-y52_61 <=1 
C1279: x52+x63 <=1 
C1280: x52+x65-y52_65 <=1 
C1281: x53+x60 <=1 
C1282: x53+x62-y53_62 <=1 
C1283: x53+x63 <=1 
C1284: x54+x55-y54_55 <=1 
C1285: x54+x60-y54_60 <=1 
C1286: x54+x62 <=1 
C1287: x54+x63-y54_63 <=1 
C1288: x54+x64-y54_64 <=1 
C1289: x54+x65 <=1 
C1290: x55+x58 <=1 
C1291: x55+x59-y55_59 <=1 
C1292: x55+x61-y55_61 <=1 
C1293: x55+x63 <=1 
C1294: x55+x64 <=1 
C1295: x55+x65 <=1 
C1296: x56+x57-y56_57 <=1 
C1297: x56+x59 <=1 
C1298: x56+x61-y56_61 <=1 
C1299: x56+x64-y56_64 <=1 
C1300: x56+x65-y56_65 <=1 
C1301: x57+x58-y57_58 <=1 
C1302: x57+x59 <=1 
C1303: x57+x60 <=1 
C1304: x57+x63 <=1 
C1305: x57+x64 <=1 
C1306: x57+x65-y57_65 <=1 
C1307: x58+x59-y58_59 <=1 
C1308: x58+x61-y58_61 <=1 
C1309: x58+x62 <=1 
C1310: x58+x63 <=1 
C1311: x58+x64-y58_64 <=1 
C1312: x59+x61 <=1 
C1313: x60+x61-y60_61 <=1 
C1314: x60+x63 <=1 
C1315: x60+x64 <=1 
C1316: x60+x65-y60_65 <=1 
C1317: x61+x63 <=1 
C1318: x61+x64-y61_64 <=1 
C1319: x62+x63 <=1 
C1320: x62+x64-y62_64 <=1 
C1321: x62+x65 <=1 
C1322: x63+x64-y63_64 <=1 
C1323: x63+x65 <=1 

binary
x0
x1
x2
x3
x4
x5
x6
x7
x8
x9
x10
x11
x12
x13
x14
x15
x16
x17
x18
x19
x20
x21
x22
x23
x24
x25
x26
x27
x28
x29
x30
x31
x32
x33
x34
x35
x36
x37
x38
x39
x40
x41
x42
x43
x44
x45
x46
x47
x48
x49
x50
x51
x52
x53
x54
x55
x56
x57
x58
x59
x60
x61
x62
x63
x64
x65
