problem_generation/data/GISP/train/er_n=66_m=1323_p=0.60_SET2_setparam=100.00_alpha=0.50_713.sol
objective value:                                 1163
x2                                                  1 	(obj:100)
x20                                                 1 	(obj:100)
x21                                                 1 	(obj:100)
x25                                                 1 	(obj:100)
x30                                                 1 	(obj:100)
x34                                                 1 	(obj:100)
x42                                                 1 	(obj:100)
x43                                                 1 	(obj:100)
x45                                                 1 	(obj:100)
x47                                                 1 	(obj:100)
x58                                                 1 	(obj:100)
x59                                                 1 	(obj:100)
y21_59                                              1 	(obj:-1)
y2_45                                               1 	(obj:-1)
y21_45                                              1 	(obj:-1)
y43_59                                              1 	(obj:-1)
y43_45                                              1 	(obj:-1)
y42_58                                              1 	(obj:-1)
y2_21                                               1 	(obj:-1)
y20_47                                              1 	(obj:-1)
y42_43                                              1 	(obj:-1)
y30_59                                              1 	(obj:-1)
y20_42                                              1 	(obj:-1)
y30_45                                              1 	(obj:-1)
y30_58                                              1 	(obj:-1)
y34_47                                              1 	(obj:-1)
y21_58                                              1 	(obj:-1)
y34_42                                              1 	(obj:-1)
y2_34                                               1 	(obj:-1)
y2_43                                               1 	(obj:-1)
y47_59                                              1 	(obj:-1)
y21_25                                              1 	(obj:-1)
y2_47                                               1 	(obj:-1)
y21_42                                              1 	(obj:-1)
y58_59                                              1 	(obj:-1)
y20_59                                              1 	(obj:-1)
y20_45                                              1 	(obj:-1)
y20_58                                              1 	(obj:-1)
y30_34                                              1 	(obj:-1)
y30_43                                              1 	(obj:-1)
y42_45                                              1 	(obj:-1)
y30_47                                              1 	(obj:-1)
y34_59                                              1 	(obj:-1)
y45_59                                              1 	(obj:-1)
y30_42                                              1 	(obj:-1)
y25_58                                              1 	(obj:-1)
y34_45                                              1 	(obj:-1)
y45_58                                              1 	(obj:-1)
y25_30                                              1 	(obj:-1)
